11
0 53 36 82 62 49 22 12 49 68 61 
51 0 15 7 83 9 50 76 12 12 19 
77 37 0 19 95 11 95 72 90 12 4 
63 13 42 0 97 47 26 65 63 50 81 
100 93 84 49 0 63 38 10 95 43 23 
28 18 7 89 32 0 12 82 92 49 24 
68 90 24 85 29 21 0 21 34 87 42 
12 26 56 60 6 5 60 0 76 18 100 
68 87 73 26 23 65 89 47 0 43 11 
24 85 68 39 100 96 45 69 14 0 70 
19 30 40 57 78 17 35 68 9 18 0 
